0_instance_selection/optil_deployment/lite/full/vc-lite_010.gr
p td 313 566
1 294
1 22
1 118
1 134
1 192
1 223
294 34
294 106
294 108
294 176
294 244
2 295
2 30
2 146
2 151
2 153
2 162
2 250
2 285
295 40
295 61
295 89
295 101
295 188
295 236
295 243
295 246
3 296
3 210
3 227
296 24
296 28
296 132
296 135
296 152
296 185
296 261
296 278
296 281
296 284
4 297
4 277
4 292
297 29
297 39
297 44
297 120
297 160
297 163
297 184
297 267
5 298
5 38
5 51
5 62
5 91
5 103
5 127
5 204
5 252
5 287
5 293
298 33
298 45
298 81
298 149
298 187
298 208
298 229
298 235
6 299
6 23
6 64
6 76
6 86
6 131
6 193
6 219
6 258
299 60
299 66
299 122
299 216
299 230
299 232
7 300
7 42
7 71
7 72
7 78
7 87
7 96
7 207
7 257
7 286
300 57
300 173
300 194
300 265
8 301
8 48
8 273
301 26
301 43
301 58
301 69
301 92
301 98
301 117
301 125
301 166
301 170
301 190
301 205
301 241
9 302
9 41
9 104
9 133
9 171
9 255
9 263
9 272
302 116
302 225
302 269
10 303
10 49
10 55
10 73
10 82
10 126
10 156
10 175
10 240
303 36
303 47
303 67
303 109
303 172
303 178
303 271
303 288
11 304
11 27
11 52
11 83
11 155
11 164
11 217
11 247
304 68
304 148
304 198
304 201
304 211
304 242
304 266
12 305
12 56
12 115
12 168
12 180
12 196
12 212
12 226
12 254
305 53
305 84
305 107
305 111
305 141
305 147
305 167
305 220
13 306
13 35
13 123
13 142
13 145
13 177
13 203
13 245
13 279
306 32
306 63
306 75
306 99
306 136
306 181
306 291
14 307
14 97
14 100
14 105
14 144
14 249
14 259
14 275
14 282
307 77
307 85
307 121
307 143
307 150
307 174
15 308
15 31
15 79
15 183
15 186
15 195
15 233
15 237
15 270
308 90
308 95
308 113
308 248
16 309
16 46
16 80
16 138
16 154
16 179
16 189
16 200
16 276
309 74
309 114
309 157
309 228
309 231
309 238
309 251
309 256
17 310
17 59
17 70
17 110
17 239
310 37
310 124
310 128
310 159
310 165
310 182
310 206
310 214
310 221
310 264
310 283
18 311
18 93
18 253
311 50
311 102
311 112
311 137
311 139
311 197
311 224
311 280
19 312
19 54
19 119
19 158
19 161
19 222
19 290
312 25
312 65
312 88
312 130
312 191
312 213
20 313
20 21
20 94
20 129
20 140
20 169
20 202
20 215
20 218
20 260
20 268
20 274
20 289
313 199
313 209
313 234
313 262
21 22
21 23
22 23
24 25
24 26
25 26
27 28
27 29
28 29
30 31
30 32
31 32
33 34
33 35
34 35
36 37
36 38
37 38
39 40
39 41
40 41
42 43
42 44
43 44
45 46
45 47
46 47
48 49
48 50
49 50
51 52
51 53
52 53
54 55
54 56
55 56
57 58
57 59
58 59
60 61
60 62
61 62
63 64
63 65
64 65
66 67
66 68
67 68
69 70
69 71
70 71
72 73
72 74
73 74
75 76
75 77
76 77
78 79
78 80
79 80
81 82
81 83
82 83
84 85
84 86
85 86
87 88
87 89
88 89
90 91
90 92
91 92
93 94
93 95
94 95
96 97
96 98
97 98
99 100
99 101
100 101
102 103
102 104
103 104
105 106
105 107
106 107
108 109
108 110
109 110
111 112
111 113
112 113
114 115
114 116
115 116
117 118
117 119
118 119
120 121
120 122
121 122
123 124
123 125
124 125
126 127
126 128
127 128
129 130
129 131
130 131
132 133
132 134
133 134
135 136
135 137
136 137
138 139
138 140
139 140
141 142
141 143
142 143
144 145
144 146
145 146
147 148
147 149
148 149
150 151
150 152
151 152
153 154
153 155
154 155
156 157
156 158
157 158
159 160
159 161
160 161
162 163
162 164
163 164
165 166
165 167
166 167
168 169
168 170
169 170
171 172
171 173
172 173
174 175
174 176
175 176
177 178
177 179
178 179
180 181
180 182
181 182
183 184
183 185
184 185
186 187
186 188
187 188
189 190
189 191
190 191
192 193
192 194
193 194
195 196
195 197
196 197
198 199
198 200
199 200
201 202
201 203
202 203
204 205
204 206
205 206
207 208
207 209
208 209
210 211
210 212
211 212
213 214
213 215
214 215
216 217
216 218
217 218
219 220
219 221
220 221
222 223
222 224
223 224
225 226
225 227
226 227
228 229
228 230
229 230
231 232
231 233
232 233
234 235
234 236
235 236
237 238
237 239
238 239
240 241
240 242
241 242
243 244
243 245
244 245
246 247
246 248
247 248
249 250
249 251
250 251
252 253
252 254
253 254
255 256
255 257
256 257
258 259
258 260
259 260
261 262
261 263
262 263
264 265
264 266
265 266
267 268
267 269
268 269
270 271
270 272
271 272
273 274
273 275
274 275
276 277
276 278
277 278
279 280
279 281
280 281
282 283
282 284
283 284
285 286
285 287
286 287
288 289
288 290
289 290
291 292
291 293
292 293
