0_instance_selection/optil_deployment/lite/optil/private/vc-lite_010.out
s vc 313 202
2
4
9
10
11
12
15
16
20
22
23
25
26
28
29
30
31
34
35
36
38
39
40
42
44
45
47
48
50
51
53
54
56
57
59
61
62
64
65
67
68
70
71
72
74
76
77
78
79
81
82
84
86
87
89
90
91
93
95
96
97
100
101
102
103
105
107
109
110
111
113
114
116
118
119
120
121
123
124
127
128
130
131
132
134
135
137
139
140
141
142
144
145
147
148
150
151
153
154
157
158
160
161
162
163
165
167
169
170
172
173
174
176
177
178
180
182
183
184
186
188
190
191
192
193
195
197
198
199
201
203
204
206
207
209
210
211
213
214
216
218
219
220
222
223
225
227
228
229
231
233
234
236
238
239
241
242
243
245
246
248
249
251
252
253
256
257
258
259
261
262
265
266
267
269
270
271
273
275
276
278
279
280
282
283
286
287
288
290
292
293
294
296
298
299
300
301
306
307
310
311
312
